NAME : portcgen-16-31
COMMENT : portcgen N=16, seed=31
TYPE : TSP
DIMENSION : 16
EDGE_WEIGHT_TYPE : EUC_2D
NODE_COORD_SECTION
1 -109198 147032
2 -293336 -16795
3 -86801 -241149
4 49932 110026
5 -410195 -320184
6 109937 -249895
7 294807 -246124
8 -197419 247048
9 -41190 58776
10 -487797 -184602
11 -205123 -277176
12 -200762 -84792
13 19229 -589090
14 -159340 144001
15 -45141 69321
16 -369030 291833
